;  time  = 600
;  chars = 138
;  score = 0.9806397306397306
(set-logic QF_FP)
(declare-const x0 (_ FloatingPoint 8 24))
(declare-const x1 (_ FloatingPoint 8 24))
(declare-const x2 (_ FloatingPoint 8 24))
(declare-const x3 (_ FloatingPoint 8 24))
(declare-const x4 (_ FloatingPoint 8 24))
(declare-const x5 (_ FloatingPoint 8 24))
(declare-const x6 (_ FloatingPoint 8 24))
(declare-const x7 (_ FloatingPoint 8 24))
(declare-const x8 (_ FloatingPoint 8 24))
(declare-const x9 (_ FloatingPoint 8 24))
(declare-const x10 (_ FloatingPoint 8 24))
(declare-const x11 (_ FloatingPoint 8 24))
(declare-const x12 (_ FloatingPoint 8 24))
(declare-const x13 (_ FloatingPoint 8 24))
(declare-const x14 (_ FloatingPoint 8 24))
(assert (fp.isSubnormal (fp.add RNE (fp.sub RNE (fp.sub RNE (fp.mul RNE x9 (fp.abs (fp.abs (fp.add RNE x8 (fp.neg (fp.sub RNE x12 x8)))))) (fp.mul RNE (fp.mul RNE (fp.add RNE (fp.sub RNE (fp.abs (fp.sub RNE x10 x9)) (fp.mul RNE x8 (fp.mul RNE x9 x4))) x14) (fp.add RNE (fp.sub RNE (fp.neg (fp.add RNE x11 x6)) x13) (fp.abs (fp.abs x14)))) (fp.sub RNE (fp.neg (fp.add RNE (fp.neg (fp.mul RNE x3 x12)) (fp.add RNE (fp.add RNE x14 x0) (fp.add RNE x8 x9)))) (fp.neg (fp.sub RNE x2 (fp.sub RNE (fp.sub RNE x2 x13) (fp.neg x13))))))) x10) (fp.add RNE (fp.mul RNE (fp.mul RNE x11 (fp.mul RNE (fp.add RNE (fp.abs (fp.mul RNE x14 (fp.sub RNE x13 x8))) (fp.mul RNE x10 (fp.neg x5))) (fp.neg (fp.sub RNE (fp.add RNE x3 x0) (fp.add RNE (fp.sub RNE x6 x2) x6))))) (fp.abs (fp.neg (fp.abs x0)))) x8))))
(check-sat)